10	5
0	3	3	1	7
1	1	10
2	1	4
3	1	5
4	1	8
5	1	6
6	1	2
7	1	9
8	1	11
9	1	11
10	1	11
11	0
0	0	0	0	0	0	0
1	4	4	1	5	0	1
2	2	0	0	1	0	0
3	4	0	1	0	0	0
4	10	1	0	3	0	3
5	6	2	0	0	0	0
6	7	0	5	0	0	3
7	4	2	0	2	1	4
8	9	0	0	0	2	0
9	1	1	5	2	3	1
10	10	4	4	0	5	0
11	0	0	0	0	0	0
5	5	6	5	5
